data;
param nbVertex:=20;
param nbColorFeasible:=7;
param cardCliqueMax:=7;

param graph:
 1 2 3 4 5 6 7 8 9 10 11 12 13 14 15 16 17 18 19 20 :=
 1 0 1 1 1 1 1 1 1 1 0 1 0 0 1 1 1 1 0 1 0
 2 1 0 1 1 0 1 0 1 0 0 1 0 1 1 1 1 1 1 0 1
 3 1 1 0 1 0 0 0 1 1 1 1 1 1 1 1 0 1 1 1 1
 4 1 1 1 0 1 0 1 1 1 1 1 0 0 0 0 1 1 0 0 1
 5 1 0 0 1 0 0 1 0 1 1 0 1 0 1 1 0 1 0 1 1
 6 1 1 0 0 0 0 1 0 1 0 1 1 0 0 1 1 1 1 1 1
 7 1 0 0 1 1 1 0 1 0 1 1 1 1 1 1 1 0 1 1 1
 8 1 1 1 1 0 0 1 0 1 1 0 1 0 1 1 1 1 0 1 0
 9 1 0 1 1 1 1 0 1 0 0 1 1 1 0 1 1 1 1 1 0
 10 0 0 1 1 1 0 1 1 0 0 1 0 0 1 1 0 1 1 1 1
 11 1 1 1 1 0 1 1 0 1 1 0 0 0 1 0 1 1 1 1 1
 12 0 0 1 0 1 1 1 1 1 0 0 0 0 1 0 1 0 0 0 1
 13 0 1 1 0 0 0 1 0 1 0 0 0 0 1 1 1 1 0 1 1
 14 1 1 1 0 1 0 1 1 0 1 1 1 1 0 1 0 1 1 0 0
 15 1 1 1 0 1 1 1 1 1 1 0 0 1 1 0 0 1 1 0 1
 16 1 1 0 1 0 1 1 1 1 0 1 1 1 0 0 0 0 1 1 0
 17 1 1 1 1 1 1 0 1 1 1 1 0 1 1 1 0 0 1 1 1
 18 0 1 1 0 0 1 1 0 1 1 1 0 0 1 1 1 1 0 0 1
 19 1 0 1 0 1 1 1 1 1 1 1 0 1 0 0 1 1 0 0 1
 20 0 1 1 1 1 1 1 0 0 1 1 1 1 0 1 0 1 1 1 0
;

param cliqueColors :=
1 1
2 2
3 3
4 0
5 0
6 0
7 0
8 4
9 0
10 0
11 0
12 0
13 0
14 5
15 6
16 0
17 7
18 0
19 0
20 0
;

end;
